NAME : eil30.534.tour
COMMENT : Length = 534
COMMENT : Found by LKH [Keld Helsgaun] Wed Jul 29 23:30:07 2020
TYPE : TOUR
DIMENSION : 32
TOUR_SECTION
1
19
24
11
12
13
9
15
10
18
8
14
17
16
20
31
23
3
6
2
5
4
21
32
22
7
25
26
30
28
29
27
-1
EOF
